c Created with the Wolfram Language : www.wolfram.com
c 
p edge 90 623
e 3 4
e 1 5
e 4 5
e 4 6
e 2 7
e 5 7
e 3 9
e 4 10
e 3 11
e 4 11
e 8 11
e 1 12
e 3 12
e 4 12
e 5 12
e 1 13
e 10 13
e 12 13
e 5 15
e 6 15
e 8 15
e 9 15
e 14 15
e 1 17
e 4 17
e 7 17
e 8 17
e 1 19
e 3 19
e 7 19
e 9 20
e 16 20
e 3 21
e 7 21
e 18 21
e 1 22
e 6 22
e 19 22
e 3 23
e 12 23
e 13 23
e 4 24
e 6 24
e 12 24
e 23 24
e 9 25
e 15 25
e 18 25
e 22 25
e 9 26
e 16 26
e 17 26
e 19 26
e 11 27
e 12 27
e 21 27
e 8 28
e 18 28
e 21 28
e 6 29
e 8 29
e 16 29
e 17 29
e 19 29
e 25 29
e 28 29
e 5 30
e 6 30
e 17 30
e 24 30
e 3 31
e 5 31
e 6 31
e 11 31
e 15 31
e 20 31
e 5 32
e 8 32
e 9 32
e 17 32
e 22 32
e 29 32
e 30 32
e 31 32
e 1 33
e 2 33
e 7 33
e 11 33
e 13 33
e 16 33
e 23 33
e 25 33
e 11 34
e 22 34
e 31 34
e 6 35
e 8 35
e 19 35
e 25 35
e 5 36
e 7 36
e 13 36
e 18 36
e 20 36
e 26 36
e 1 37
e 2 37
e 9 37
e 10 37
e 15 37
e 18 37
e 20 37
e 31 37
e 35 37
e 2 38
e 5 38
e 10 38
e 18 38
e 36 38
e 15 39
e 23 39
e 27 39
e 32 39
e 1 40
e 7 40
e 12 40
e 14 40
e 22 40
e 37 40
e 26 41
e 37 41
e 14 42
e 28 42
e 37 42
e 1 43
e 3 43
e 6 43
e 22 43
e 27 43
e 32 43
e 37 43
e 1 44
e 4 44
e 11 44
e 17 44
e 20 44
e 31 44
e 32 44
e 35 44
e 3 45
e 5 45
e 7 45
e 9 45
e 17 45
e 21 45
e 28 45
e 30 45
e 32 45
e 34 45
e 16 46
e 28 46
e 34 46
e 41 46
e 43 46
e 45 46
e 1 47
e 2 47
e 10 47
e 12 47
e 33 47
e 37 47
e 38 47
e 40 47
e 5 48
e 10 48
e 13 48
e 21 48
e 26 48
e 32 48
e 39 48
e 40 48
e 7 49
e 12 49
e 26 49
e 27 49
e 31 49
e 40 49
e 42 49
e 3 50
e 4 50
e 24 50
e 31 50
e 32 50
e 36 50
e 37 50
e 41 50
e 43 50
e 1 51
e 19 51
e 21 51
e 24 51
e 32 51
e 34 51
e 46 51
e 49 51
e 6 52
e 12 52
e 20 52
e 28 52
e 30 52
e 36 52
e 40 52
e 45 52
e 11 53
e 14 53
e 23 53
e 26 53
e 29 53
e 37 53
e 44 53
e 3 54
e 14 54
e 25 54
e 26 54
e 28 54
e 39 54
e 52 54
e 1 55
e 28 55
e 32 55
e 39 55
e 44 55
e 49 55
e 51 55
e 1 56
e 11 56
e 12 56
e 15 56
e 16 56
e 18 56
e 27 56
e 35 56
e 40 56
e 45 56
e 53 56
e 9 57
e 13 57
e 23 57
e 25 57
e 27 57
e 33 57
e 43 57
e 51 57
e 54 57
e 56 57
e 12 58
e 17 58
e 35 58
e 36 58
e 47 58
e 3 59
e 9 59
e 16 59
e 20 59
e 21 59
e 22 59
e 24 59
e 27 59
e 31 59
e 33 59
e 35 59
e 38 59
e 40 59
e 44 59
e 46 59
e 6 60
e 10 60
e 11 60
e 23 60
e 39 60
e 53 60
e 5 61
e 8 61
e 10 61
e 13 61
e 20 61
e 23 61
e 24 61
e 34 61
e 38 61
e 42 61
e 5 62
e 8 62
e 16 62
e 17 62
e 20 62
e 28 62
e 31 62
e 34 62
e 35 62
e 41 62
e 46 62
e 4 63
e 6 63
e 13 63
e 31 63
e 37 63
e 40 63
e 55 63
e 3 64
e 5 64
e 6 64
e 7 64
e 9 64
e 11 64
e 19 64
e 24 64
e 30 64
e 31 64
e 32 64
e 36 64
e 40 64
e 43 64
e 59 64
e 2 65
e 3 65
e 4 65
e 18 65
e 22 65
e 33 65
e 47 65
e 53 65
e 55 65
e 64 65
e 1 66
e 3 66
e 11 66
e 13 66
e 21 66
e 24 66
e 47 66
e 50 66
e 53 66
e 64 66
e 13 67
e 29 67
e 38 67
e 42 67
e 54 67
e 59 67
e 63 67
e 18 68
e 25 68
e 41 68
e 42 68
e 46 68
e 49 68
e 60 68
e 64 68
e 7 69
e 8 69
e 23 69
e 29 69
e 37 69
e 46 69
e 54 69
e 55 69
e 60 69
e 61 69
e 62 69
e 12 70
e 20 70
e 22 70
e 23 70
e 25 70
e 42 70
e 43 70
e 46 70
e 52 70
e 68 70
e 1 71
e 2 71
e 9 71
e 11 71
e 13 71
e 21 71
e 30 71
e 34 71
e 45 71
e 47 71
e 49 71
e 60 71
e 61 71
e 66 71
e 69 71
e 23 72
e 34 72
e 46 72
e 53 72
e 66 72
e 70 72
e 10 73
e 14 73
e 31 73
e 49 73
e 53 73
e 58 73
e 59 73
e 64 73
e 68 73
e 1 74
e 9 74
e 14 74
e 24 74
e 27 74
e 31 74
e 34 74
e 43 74
e 44 74
e 46 74
e 51 74
e 54 74
e 4 75
e 6 75
e 10 75
e 17 75
e 22 75
e 31 75
e 35 75
e 44 75
e 57 75
e 66 75
e 67 75
e 69 75
e 7 76
e 12 76
e 13 76
e 14 76
e 23 76
e 24 76
e 45 76
e 52 76
e 54 76
e 59 76
e 65 76
e 71 76
e 1 77
e 16 77
e 18 77
e 22 77
e 33 77
e 35 77
e 38 77
e 44 77
e 51 77
e 69 77
e 7 78
e 9 78
e 12 78
e 16 78
e 18 78
e 19 78
e 25 78
e 28 78
e 34 78
e 40 78
e 47 78
e 48 78
e 49 78
e 56 78
e 59 78
e 61 78
e 67 78
e 2 79
e 3 79
e 10 79
e 17 79
e 27 79
e 33 79
e 35 79
e 54 79
e 59 79
e 62 79
e 64 79
e 75 79
e 77 79
e 12 80
e 22 80
e 23 80
e 29 80
e 38 80
e 41 80
e 43 80
e 47 80
e 56 80
e 57 80
e 14 81
e 22 81
e 24 81
e 26 81
e 29 81
e 31 81
e 35 81
e 37 81
e 56 81
e 62 81
e 64 81
e 74 81
e 10 82
e 13 82
e 16 82
e 39 82
e 57 82
e 58 82
e 76 82
e 12 83
e 28 83
e 29 83
e 36 83
e 41 83
e 54 83
e 58 83
e 59 83
e 60 83
e 61 83
e 62 83
e 68 83
e 76 83
e 80 83
e 1 84
e 6 84
e 8 84
e 9 84
e 18 84
e 19 84
e 25 84
e 37 84
e 42 84
e 46 84
e 50 84
e 62 84
e 65 84
e 82 84
e 15 85
e 30 85
e 33 85
e 34 85
e 35 85
e 53 85
e 56 85
e 62 85
e 72 85
e 77 85
e 14 86
e 18 86
e 33 86
e 38 86
e 41 86
e 47 86
e 59 86
e 75 86
e 85 86
e 12 87
e 16 87
e 18 87
e 23 87
e 24 87
e 26 87
e 38 87
e 43 87
e 46 87
e 48 87
e 54 87
e 66 87
e 69 87
e 70 87
e 86 87
e 22 88
e 30 88
e 32 88
e 35 88
e 36 88
e 42 88
e 46 88
e 48 88
e 49 88
e 51 88
e 53 88
e 54 88
e 60 88
e 68 88
e 75 88
e 8 89
e 12 89
e 13 89
e 33 89
e 41 89
e 42 89
e 52 89
e 55 89
e 57 89
e 59 89
e 60 89
e 85 89
e 8 90
e 12 90
e 22 90
e 24 90
e 27 90
e 29 90
e 37 90
e 41 90
e 48 90
e 51 90
e 62 90
e 63 90
e 75 90
e 84 90
e 85 90
e 86 90
e 87 90
e 88 90
e 89 90
